4 
5  37 54 
6  07 22 35 48 
7  03 18 33 48 
8  03 18 33 48 
9  03 18 33 48 
10  05 20 35 50 
11  05 20 35 50 
12  05 20 35 50 
13  05 20 35 50 
14  05 20 35 50 
15  05 20 35 50 
16  05 20 35 50 
17  05 20 35 50 
18  05 20 35 50 
19  05 20 35 50 
20  05 20 35 50 
21  05 20 35 50 
22  05 22 37 52 
23  04 17 
0 
